1665254
21,17,48,15,92,4,79,67,109,24,90,83,25,16,107,94,84,51,59,2,81,46,29,45,82,98,101,5,1,35,52,34,3,20,63,44,85,43,95,32,61,6,30,103,56,74,64,10,66,77,9,57,75,86,27,69,70,14,47,97,91,49,41,38,26,37,72,31,39,50,18,106,62,12,28,55,96,7,8,36,33,76,93,23,22,54,58,104,11,89,71,19,105,99,68,40,108,60,78,73,87,88,65,42,13,53,102,100,80